This is Ipopt version 3.14.16, running with linear solver MUMPS 5.7.3.

Number of nonzeros in equality constraint Jacobian...:        0
Number of nonzeros in inequality constraint Jacobian.:      448
Number of nonzeros in Lagrangian Hessian.............:        0

Total number of variables............................:       14
                     variables with only lower bounds:        0
                variables with lower and upper bounds:       14
                     variables with only upper bounds:        0
Total number of equality constraints.................:        0
Total number of inequality constraints...............:       32
        inequality constraints with only lower bounds:        0
   inequality constraints with lower and upper bounds:        0
        inequality constraints with only upper bounds:       32

iter    objective    inf_pr   inf_du lg(mu)  ||d||  lg(rg) alpha_du alpha_pr  ls
   0  5.8111215e-03 0.00e+00 7.33e-01   0.0 0.00e+00    -  0.00e+00 0.00e+00   0
   1  5.7459925e-03 0.00e+00 7.13e-02  -5.8 5.44e-02    -  9.33e-01 1.00e+00h  1
   2  5.7412713e-03 0.00e+00 1.31e-03  -7.0 3.07e-03    -  9.89e-01 1.00e+00h  1
   3  3.7463123e-03 0.00e+00 3.33e-04  -8.9 1.26e+00    -  8.93e-01 8.57e-01f  1
   4  3.3790903e-03 7.76e-02 1.52e-03  -5.3 5.47e-01    -  2.53e-01 1.00e+00h  1
   5  3.3488946e-03 7.15e-03 3.40e-04  -4.7 2.70e-01    -  6.96e-01 1.00e+00h  1
   6  3.2940967e-03 0.00e+00 2.00e-04  -5.1 7.80e-02    -  1.00e+00 1.00e+00h  1

Number of Iterations....: 6

                                   (scaled)                 (unscaled)
Objective...............:   3.2940967141432994e-03    3.2940967141432994e-03
Dual infeasibility......:   2.0032194005620068e-04    2.0032194005620068e-04
Constraint violation....:   0.0000000000000000e+00    0.0000000000000000e+00
Variable bound violation:   0.0000000000000000e+00    0.0000000000000000e+00
Complementarity.........:   1.6724929464382062e-05    1.6724929464382062e-05
Overall NLP error.......:   2.0032194005620068e-04    2.0032194005620068e-04


Number of objective function evaluations             = 7
Number of objective gradient evaluations             = 7
Number of equality constraint evaluations            = 0
Number of inequality constraint evaluations          = 7
Number of equality constraint Jacobian evaluations   = 0
Number of inequality constraint Jacobian evaluations = 7
Number of Lagrangian Hessian evaluations             = 0
Total seconds in IPOPT                               = 1.036

EXIT: Optimal Solution Found.
